\ENCODING=ISO-8859-1
\Problem name: inst_16_cut_n2

Maximize
 obj1: 84 x0 + 89 x1 + 4 x2 + 68 x3 + 57 x4 + 10 x5 + 51 x6 + 81 x7 + 32 x8
       + 33 x9 + 30 x10 + 22 x11
Subject To
 c0:    52 x0 + 68 x1 + 62 x2 + 74 x3 + 10 x4 + 48 x5 + 81 x6 + 86 x7 + 31 x8
        + 78 x9 + 2 x10 + 23 x11 + s0 <= 1066
 c1:    71 x0 + 14 x1 + 9 x2 + 8 x3 + 50 x4 + 53 x5 + 27 x6 + 21 x7 + 56 x8
        + 38 x9 + 62 x10 + 23 x11 + s1 <= 703
 c2:    67 x0 + 55 x1 + 25 x2 + 19 x3 + 28 x4 + 93 x5 + 69 x6 + 72 x7 + 74 x8
        + 17 x9 + 56 x10 + 10 x11 + s2 <= 611
 c3:    30 x0 + 3 x1 + 27 x2 + 81 x3 + 20 x4 + 58 x5 + 38 x6 + 86 x7 + 51 x8
        + 72 x9 + 98 x10 + 76 x11 + s3 <= 991
 c4:    95 x0 + 38 x1 + 68 x2 + 2 x3 + 21 x4 + 84 x5 + 77 x6 + 4 x7 + 64 x8
        + 82 x9 + 73 x10 + 61 x11 + s4 <= 478
 c5:    18 x0 + 92 x1 + 79 x2 + 81 x3 + 2 x4 + 51 x5 + 65 x6 + 72 x7 + 47 x8
        + 99 x9 + 5 x10 + 99 x11 + s5 <= 297
 c6:    2 x0 + 31 x1 + 45 x2 + 59 x3 + 6 x4 + 60 x5 + 24 x6 + 47 x7 + 16 x8
        + 98 x9 + 22 x10 + 27 x11 + s6 <= 404
 c7:    53 x0 + 71 x1 + 91 x2 + 61 x3 + 6 x4 + 32 x5 + 25 x6 + 66 x7 + 92 x8
        + 87 x9 + 46 x10 + 51 x11 + s7 <= 815
 cut_1: 13 x0 + 69 x1 + 59 x2 + 61 x3 + x4 + 38 x5 + 49 x6 + 54 x7 + 35 x8
        + 74 x9 + 3 x10 + 74 x11 <= 223
 cut_2: 10 x0 + 53 x1 + 46 x2 + 47 x3 + x4 + 29 x5 + 38 x6 + 42 x7 + 27 x8
        + 57 x9 + 2 x10 + 57 x11 <= 173
Bounds
 0 <= x0 <= 1
 0 <= x1 <= 1
 0 <= x2 <= 1
 0 <= x3 <= 1
 0 <= x4 <= 1
 0 <= x5 <= 1
 0 <= x6 <= 1
 0 <= x7 <= 1
 0 <= x8 <= 1
 0 <= x9 <= 1
 0 <= x10 <= 1
 0 <= x11 <= 1
End
